c File: instances/34_0.30_1.col
c
c Description: Random graph of size 34 vertices and P(0.3) of edges between any two vertices.
p col 34 561
e 1 3
e 1 4
e 1 6
e 1 9
e 1 10
e 1 12
e 1 13
e 1 14
e 1 15
e 1 18
e 1 19
e 1 23
e 1 24
e 1 25
e 1 28
e 1 31
e 1 32
e 1 33
e 2 10
e 2 13
e 2 14
e 2 17
e 2 19
e 2 25
e 2 26
e 2 30
e 3 7
e 3 9
e 3 10
e 3 11
e 3 12
e 3 14
e 3 18
e 3 19
e 3 21
e 3 23
e 3 25
e 3 28
e 3 29
e 3 30
e 3 34
e 4 10
e 4 12
e 4 14
e 4 21
e 4 23
e 4 27
e 4 33
e 5 8
e 5 10
e 5 13
e 5 14
e 5 18
e 5 20
e 5 28
e 5 34
e 6 8
e 6 9
e 6 12
e 6 17
e 6 20
e 6 24
e 6 25
e 6 26
e 6 27
e 6 30
e 6 34
e 7 16
e 7 17
e 7 19
e 7 24
e 7 26
e 7 27
e 7 28
e 7 31
e 7 34
e 8 10
e 8 11
e 8 21
e 8 27
e 9 11
e 9 12
e 9 18
e 9 19
e 9 23
e 9 24
e 9 26
e 10 13
e 10 21
e 10 24
e 10 29
e 10 31
e 11 16
e 11 20
e 11 22
e 11 24
e 11 29
e 11 30
e 11 34
e 12 13
e 12 14
e 12 15
e 12 18
e 12 19
e 12 22
e 12 26
e 12 29
e 12 30
e 12 31
e 12 34
e 13 15
e 13 24
e 13 30
e 13 33
e 13 34
e 14 18
e 14 21
e 14 24
e 14 26
e 15 18
e 15 20
e 15 26
e 15 28
e 15 30
e 15 34
e 16 23
e 16 28
e 16 29
e 16 31
e 16 33
e 17 21
e 17 26
e 17 34
e 18 22
e 18 23
e 18 26
e 18 28
e 18 31
e 18 33
e 19 21
e 19 22
e 19 28
e 20 22
e 20 26
e 21 22
e 21 23
e 21 24
e 21 26
e 21 28
e 21 31
e 22 29
e 22 34
e 23 25
e 23 30
e 24 25
e 24 30
e 25 27
e 25 30
e 26 28
e 26 31
e 26 33
e 26 34
e 27 28
e 27 32
e 27 34
e 29 30
e 29 31
e 29 32
e 29 33
e 30 33
e 30 34
e 31 33
e 32 34